Argumentos: 
./solver.release -i 1 -t 86400 -a 7 -h 86400 -w Testes/R1-i1 -m R1_modeloCom2345.mod -o R1_modeloCom2345.mod 
Seed: 1622927738
hidden-TXT/Sc-n035w4.txt
hidden-TXT/H0-n035w4-2.txt
hidden-TXT/WD-n035w4-8.txt hidden-TXT/WD-n035w4-8.txt hidden-TXT/WD-n035w4-7.txt hidden-TXT/WD-n035w4-5.txt 
Reading model section from R1_modeloCom2345.mod...
367 lines were read
Reading data section from Testes/R1-i1/1.dat...
7248 lines were read
Generating obj...
Generating H1turnoDia...
Generating H2coberturaMinima...
Generating H3AsucessaoTurnos...
Generating H3BsucessaoTurnos...
Generating H4qualificacao...
Generating S1coberturaOtima...
Generating auxS5...
Generating S6a...
Generating S6b...
Generating auxS7...
Generating S7...
Model has been successfully generated
Writing problem data to `Testes/R1-i1/1.lp'...
120329 lines were written
CPX0000  Tried aggregator 2 times.
CPX0000  MIP Presolve eliminated 7382 rows and 28768 columns.
CPX0000  MIP Presolve modified 1887 coefficients.
CPX0000  Aggregator did 2 substitutions.
CPX0000  Reduced MIP has 3537 rows, 7219 columns, and 39378 nonzeros.
CPX0000  Reduced MIP has 7009 binaries, 210 generals, 0 SOSs, and 0 indicators.
CPX0000  Presolve time = 0.07 sec. (58.23 ticks)
CPX0000  Found incumbent of value 32950.000000 after 0.13 sec. (97.19 ticks)
[1m[30m[ZEN] [0m00:00:00 [1m[34m  32950.00[1m[32m  100.00%
[0mCPX0000  Probing time = 0.01 sec. (3.59 ticks)
CPX0000  Tried aggregator 1 time.
CPX0000  MIP Presolve eliminated 5 rows and 1 columns.
CPX0000  Reduced MIP has 3532 rows, 7218 columns, and 39358 nonzeros.
CPX0000  Reduced MIP has 7008 binaries, 210 generals, 0 SOSs, and 0 indicators.
CPX0000  Presolve time = 0.02 sec. (16.60 ticks)
CPX0000  Probing time = 0.01 sec. (3.39 ticks)
CPX0000  Clique table members: 4748.
CPX0000  MIP emphasis: balance optimality and feasibility.
CPX0000  MIP search method: dynamic search.
CPX0000  Parallel mode: none, using 1 thread.
CPX0000  Root relaxation solution time = 0.14 sec. (118.60 ticks)
CPX0000
CPX0000          Nodes                                         Cuts/
CPX0000     Node  Left     Objective  IInf  Best Integer    Best Bound    ItCnt     Gap
CPX0000
CPX0000  *     0+    0                        32950.0000        0.0000     1798  100.00%
CPX0000        0     0       15.0000   392    32950.0000       15.0000     1798   99.95%
CPX0000  *     0+    0                         2180.0000       15.0000     1798   99.31%
[1m[30m[ZEN] [0m00:00:00 [1m[34m   2180.00[1m[32m   99.31%
[0mCPX0000        0     0       30.0000    37     2180.0000      Cuts: 12     1974   98.62%
CPX0000  *     0+    0                          640.0000       30.0000     1974   95.31%
[1m[30m[ZEN] [0m00:00:01 [1m[34m    640.00[1m[32m   95.31%
[0mCPX0000        0     0       30.0000   172      640.0000     Cuts: 135     2408   95.31%
CPX0000        0     0       30.0000    63      640.0000      Cuts: 14     2604   95.31%
CPX0000        0     0       45.0000   161      640.0000     Cuts: 135     2963   92.97%
CPX0000        0     0       45.0000   137      640.0000     Cuts: 125     3241   92.97%
CPX0000  *     0+    0                          470.0000       45.0000     3241   90.43%
[1m[30m[ZEN] [0m00:00:01 [1m[34m    470.00[1m[32m   90.43%
[0mCPX0000  *     0+    0                          290.0000       45.0000     3241   84.48%
CPX0000  *     0+    0                          250.0000       45.0000     3241   82.00%
CPX0000  *     0+    0                          190.0000       45.0000     3241   76.32%
[1m[30m[ZEN] [0m00:00:01 [1m[34m    190.00[1m[32m   76.32%
[0mCPX0000        0     0       60.0000    92      190.0000      Cuts: 73     3323   68.42%
CPX0000        0     0       60.0000   238      190.0000      Cuts: 69     3631   68.42%
CPX0000  *     0+    0                          120.0000       60.0000     3631   50.00%
CPX0000  *     0+    0                          110.0000       60.0000     3631   45.45%
CPX0000  *     0+    0                          100.0000       60.0000     3631   40.00%
[1m[30m[ZEN] [0m00:00:02 [1m[34m    100.00[1m[32m   40.00%
[0mCPX0000        0     2       60.0000     3      100.0000       60.0000     3631   40.00%
CPX0000  Elapsed time = 2.88 sec. (2299.73 ticks, tree = 0.00 MB
CPX0000       25    27       60.0000     7      100.0000       60.0000     6364   40.00%
CPX0000       36    38       60.0000    29      100.0000       60.0000     8675   40.00%
CPX0000  *    40+   40                           90.0000       60.0000     9629   33.33%
CPX0000       40    42       70.0000    57       90.0000       60.0000     9629   33.33%
[1m[30m[ZEN] [0m00:00:04 [1m[34m     90.00[1m[32m   33.33%
[0mCPX0000       56    58       70.0000     7       90.0000       60.0000    11813   33.33%
CPX0000       78    80       70.0000    58       90.0000       60.0000    13875   33.33%
CPX0000       95    97       80.0000     7       90.0000       60.0000    15780   33.33%
CPX0000  *   104    90      integral     0       80.0000       60.0000    16212   25.00%
[1m[30m[ZEN] [0m00:00:05 [1m[34m     80.00[1m[32m   25.00%
[0mCPX0000      131   117       60.0000     1       80.0000       60.0000    17572   25.00%
CPX0000      160   146       60.0000    45       80.0000       60.0000    19333   25.00%
CPX0000  *   204+  133                           70.0000       60.0000    21760   14.29%
[1m[30m[ZEN] [0m00:00:06 [1m[34m     70.00[1m[32m   14.29%
[0mCPX0000      280   207       60.0000     4       70.0000       60.0000    24983   14.29%
CPX0000  Elapsed time = 6.85 sec. (5456.35 ticks, tree = 8.33 MB
CPX0000      475   396       60.0000    77       70.0000       60.0000    30875   14.29%
CPX0000      476   397       60.0000     1       70.0000       60.0000    33332   14.29%
CPX0000      506   415       60.0000    20       70.0000       60.0000    37081   14.29%
CPX0000      554   411       60.0000     5       70.0000       60.0000    42414   14.29%
CPX0000      597   433       60.0000   139       70.0000       60.0000    45854   14.29%
CPX0000      651   453       60.0000    79       70.0000       60.0000    50225   14.29%
CPX0000      676   469       60.0000     5       70.0000       60.0000    51031   14.29%
CPX0000      748   493       60.0000     1       70.0000       60.0000    55729   14.29%
CPX0000      797   509       60.0000    84       70.0000       60.0000    59799   14.29%
CPX0000      827   515       60.0000    51       70.0000       60.0000    63746   14.29%
CPX0000  Elapsed time = 19.93 sec. (16889.92 ticks, tree = 14.78 MB
CPX0000      861   514       60.0000     3       70.0000       60.0000    67928   14.29%
CPX0000      916   514       60.0000     3       70.0000       60.0000    72088   14.29%
CPX0000      957   521       60.0000   146       70.0000       60.0000    76846   14.29%
CPX0000      996   525       60.0000   135       70.0000       60.0000    81397   14.29%
CPX0000     1042   538       60.0000    61       70.0000       60.0000    86433   14.29%
CPX0000     1077   541       60.0000    83       70.0000       60.0000    92154   14.29%
CPX0000     1115   525       60.0000   127       70.0000       60.0000    97451   14.29%
CPX0000     1151   515       60.0000    33       70.0000       60.0000   103171   14.29%
CPX0000     1197   522       60.0000    50       70.0000       60.0000   108049   14.29%
CPX0000     1243   554       60.0000    85       70.0000       60.0000   113160   14.29%
CPX0000  Elapsed time = 30.28 sec. (26643.09 ticks, tree = 13.34 MB
CPX0000     1288   571       60.0000    75       70.0000       60.0000   118504   14.29%
CPX0000     1324   578       60.0000    81       70.0000       60.0000   123172   14.29%
CPX0000     1374   595       60.0000     7       70.0000       60.0000   128603   14.29%
CPX0000     1409   607       60.0000   122       70.0000       60.0000   133451   14.29%
CPX0000     1436   612       60.0000   181       70.0000       60.0000   138557   14.29%
CPX0000     1475   618       60.0000    43       70.0000       60.0000   144369   14.29%
CPX0000     1520   628       60.0000    50       70.0000       60.0000   150059   14.29%
CPX0000     1558   628       60.0000    72       70.0000       60.0000   155825   14.29%
CPX0000     1587   626       60.0000    86       70.0000       60.0000   161997   14.29%
CPX0000     1613   636       60.0000    79       70.0000       60.0000   167402   14.29%
CPX0000  Elapsed time = 40.13 sec. (36506.02 ticks, tree = 16.70 MB
CPX0000     1644   630       60.0000    92       70.0000       60.0000   173062   14.29%
CPX0000     1676   627       60.0000   146       70.0000       60.0000   177353   14.29%
CPX0000     1710   626       60.0000    86       70.0000       60.0000   182877   14.29%
CPX0000     1733   626       60.0000    31       70.0000       60.0000   188309   14.29%
CPX0000     1761   622       60.0000    44       70.0000       60.0000   194436   14.29%
CPX0000     1791   629       60.0000    74       70.0000       60.0000   199498   14.29%
CPX0000     1813   630       60.0000     3       70.0000       60.0000   204594   14.29%
CPX0000     1840   629       60.0000    55       70.0000       60.0000   210437   14.29%
CPX0000     1863   628       60.0000   144       70.0000       60.0000   214914   14.29%
CPX0000     1892   629       60.0000    43       70.0000       60.0000   221507   14.29%
CPX0000  Elapsed time = 50.63 sec. (46712.08 ticks, tree = 17.69 MB
CPX0000     1918   635       60.0000   133       70.0000       60.0000   228096   14.29%
CPX0000     1941   632       60.0000   128       70.0000       60.0000   232675   14.29%
CPX0000     1971   640       60.0000     7       70.0000       60.0000   237928   14.29%
CPX0000     2000   638       60.0000   206       70.0000       60.0000   244119   14.29%
CPX0000     2033   637       60.0000   105       70.0000       60.0000   249715   14.29%
CPX0000     2062   631       60.0000   131       70.0000       60.0000   254935   14.29%
CPX0000     2095   628    infeasible             70.0000       60.0000   260736   14.29%
CPX0000     2122   628       60.0000   202       70.0000       60.0000   266833   14.29%
CPX0000     2153   626       60.0000    69       70.0000       60.0000   271865   14.29%
CPX0000     2190   621       60.0000   276       70.0000       60.0000   277843   14.29%
CPX0000  Elapsed time = 60.84 sec. (56751.73 ticks, tree = 17.23 MB
CPX0000     2231   613       60.0000    76       70.0000       60.0000   283355   14.29%
CPX0000     2276   603       60.0000   144       70.0000       60.0000   288582   14.29%
CPX0000     2313   607       60.0000    75       70.0000       60.0000   294728   14.29%
CPX0000     2346   605       60.0000   119       70.0000       60.0000   300848   14.29%
CPX0000     2379   600       60.0000    88       70.0000       60.0000   305938   14.29%
CPX0000     2417   602       60.0000    70       70.0000       60.0000   311419   14.29%
CPX0000     2456   597    infeasible             70.0000       60.0000   316717   14.29%
CPX0000     2476   608       60.0000   102       70.0000       60.0000   320965   14.29%
CPX0000     2515   602       60.0000    35       70.0000       60.0000   326779   14.29%
CPX0000     2557   598       60.0000    80       70.0000       60.0000   332304   14.29%
CPX0000  Elapsed time = 71.11 sec. (66922.67 ticks, tree = 16.85 MB
CPX0000     2600   594       60.0000   192       70.0000       60.0000   337620   14.29%
CPX0000     2636   602       60.0000    63       70.0000       60.0000   343147   14.29%
CPX0000     2671   603       60.0000    67       70.0000       60.0000   348446   14.29%
CPX0000     2706   601       60.0000   180       70.0000       60.0000   354179   14.29%
CPX0000     2746   591       60.0000   174       70.0000       60.0000   360311   14.29%
CPX0000     2779   588       60.0000   143       70.0000       60.0000   365704   14.29%
CPX0000     2822   580       60.0000    47       70.0000       60.0000   371495   14.29%
CPX0000     2869   567       60.0000    73       70.0000       60.0000   378147   14.29%
CPX0000     2928   547       60.0000   138       70.0000       60.0000   384436   14.29%
CPX0000     2975   532       60.0000    98       70.0000       60.0000   390464   14.29%
CPX0000  Elapsed time = 81.39 sec. (77011.87 ticks, tree = 15.28 MB
CPX0000     3018   524       60.0000    64       70.0000       60.0000   397307   14.29%
CPX0000     3075   507       60.0000    65       70.0000       60.0000   403604   14.29%
CPX0000     3116   494       60.0000    93       70.0000       60.0000   410849   14.29%
CPX0000     3166   478       60.0000    27       70.0000       60.0000   417710   14.29%
CPX0000     3221   461       60.0000    55       70.0000       60.0000   424317   14.29%
CPX0000     3279   439       60.0000   137       70.0000       60.0000   430621   14.29%
CPX0000     3338   413       60.0000   125       70.0000       60.0000   438044   14.29%
CPX0000     3376   418       60.0000   195       70.0000       60.0000   442998   14.29%
CPX0000     3429   409       60.0000    51       70.0000       60.0000   449232   14.29%
CPX0000     3468   402       60.0000    59       70.0000       60.0000   456106   14.29%
CPX0000  Elapsed time = 92.18 sec. (87403.65 ticks, tree = 11.65 MB
CPX0000     3516   391    infeasible             70.0000       60.0000   461580   14.29%
CPX0000     3573   375    infeasible             70.0000       60.0000   467604   14.29%
CPX0000     3616   366       60.0000   156       70.0000       60.0000   473294   14.29%
CPX0000     3660   357       60.0000   172       70.0000       60.0000   479643   14.29%
CPX0000     3724   334       60.0000    55       70.0000       60.0000   485727   14.29%
CPX0000     3774   318       60.0000   159       70.0000       60.0000   491854   14.29%
CPX0000     3820   310       60.0000    49       70.0000       60.0000   497838   14.29%
CPX0000     3859   302    infeasible             70.0000       60.0000   503946   14.29%
CPX0000     3886   298       60.0000   166       70.0000       60.0000   506953   14.29%
CPX0000     4114   241       60.0000   113       70.0000       60.0000   530618   14.29%
CPX0000  Elapsed time = 105.31 sec. (100059.75 ticks, tree = 7.34 MB
CPX0000     4318   183       60.0000    67       70.0000       60.0000   554203   14.29%
CPX0000     4578   101       60.0000   158       70.0000       60.0000   576403   14.29%
CPX0000     4849    20    infeasible             70.0000       60.0000   597484   14.29%
CPX0000
CPX0000  GUB cover cuts applied:  59
CPX0000  Clique cuts applied:  101
CPX0000  Cover cuts applied:  182
CPX0000  Mixed integer rounding cuts applied:  2
CPX0000  Zero-half cuts applied:  23
CPX0000  Gomory fractional cuts applied:  6
CPX0000
CPX0000  Root node processing (before b&c):
CPX0000    Real time             =    2.87 sec. (2288.71 ticks)
CPX0000  Sequential b&c:
CPX0000    Real time             =  114.70 sec. (110771.94 ticks)
CPX0000                            ------------
CPX0000  Total (root+branch&cut) =  117.57 sec. (113060.65 ticks)
H2 understaffing: 0
H3 shiftTypeSuccessions: 0
S1 optimalCoverage: 30
S2a consecutiveShift: 5820 = (385,3 )
S2b consecutiveWorkingDays: 8400 = ( 221,59 )
S3 consecutiveDaysOff: 4200 = ( 131,9 )
S4 preferences: 10
S5 completeWeekend: 0
S6 totalAssignments: 0
S7 totalWorkingWeekeends: 30
 

Cost Solution: 18490

      |M|T|W|T|F|S|S| |M|T|W|T|F|S|S| |M|T|W|T|F|S|S| |M|T|W|T|F|S|S|
-----------------------------------------------------------------------
HN_0  |-|N|-|N|-|E|D| |E|E|-|-|D|-|-| |-|N|-|D|L|-|-| |L|-|-|-|-|-|-|
HN_1  |E|D|L|-|D|-|-| |L|N|N|N|-|-|-| |-|E|L|-|N|-|-| |-|-|E|D|-|D|D|
HN_2  |L|N|-|-|-|-|-| |D|-|N|-|-|N|N| |-|-|E|E|D|E|L| |L|N|-|L|L|-|-|
HN_3  |D|-|-|L|-|-|-| |-|D|D|E|-|L|L| |L|L|N|-|-|-|-| |D|D|E|E|E|-|-|
HN_4  |-|-|L|-|N|-|-| |-|L|L|-|-|-|-| |-|L|-|N|N|N|N| |-|L|L|-|-|-|-|
HN_5  |-|E|-|E|-|L|L| |-|N|-|E|-|-|-| |-|D|-|E|L|-|-| |-|E|-|-|L|-|-|
NU_6  |-|E|-|E|L|-|-| |E|D|-|-|E|D|E| |N|N|-|L|-|-|-| |N|-|D|E|D|-|-|
NU_7  |N|-|L|-|E|D|E| |N|-|-|-|L|-|-| |N|N|-|-|-|E|L| |N|N|N|N|-|-|-|
NU_8  |L|L|L|N|N|-|-| |-|-|E|E|D|-|-| |D|D|D|D|D|D|D| |E|E|D|E|E|L|L|
NU_9  |D|N|N|-|E|E|E| |D|D|N|-|N|-|-| |E|E|D|D|E|D|E| |N|N|N|N|N|-|-|
NU_10 |-|D|E|-|-|-|-| |-|N|-|L|-|-|-| |N|-|-|E|D|E|E| |D|E|L|-|D|E|E|
NU_11 |L|-|D|D|E|-|-| |L|-|E|-|-|E|D| |-|-|-|L|-|-|-| |D|-|D|-|-|-|-|
NU_12 |E|E|-|D|-|-|-| |D|-|-|-|-|D|E| |-|L|L|-|-|-|-| |N|N|-|-|N|-|-|
NU_13 |-|D|E|D|-|-|-| |-|L|L|-|E|-|-| |-|N|-|N|N|-|-| |-|-|-|-|-|N|N|
NU_14 |N|-|-|-|L|-|-| |L|N|-|D|L|-|-| |-|D|-|-|-|E|D| |N|-|-|-|L|-|-|
NU_15 |N|N|N|-|E|-|-| |E|E|-|-|E|-|-| |E|D|N|-|L|N|N| |-|-|E|-|D|-|-|
NU_16 |-|D|-|E|-|N|N| |-|E|E|E|L|-|-| |-|D|D|D|-|L|N| |-|D|-|-|N|-|-|
CT_17 |L|N|N|-|-|L|N| |N|N|N|N|-|E|E| |E|L|L|L|N|-|-| |E|E|N|N|N|-|-|
CT_18 |E|-|D|E|E|E|D| |N|-|D|E|D|-|-| |D|N|N|N|N|-|-| |E|D|E|D|E|D|N|
CT_19 |-|L|N|-|-|-|-| |N|-|D|-|-|-|-| |L|-|-|-|-|-|-| |D|L|N|-|D|D|E|
CT_20 |E|E|D|D|D|-|-| |E|E|E|D|E|E|D| |D|E|D|D|D|-|-| |E|E|E|D|N|-|-|
CT_21 |-|-|-|-|D|D|E| |-|E|L|-|E|-|-| |E|E|-|-|L|L|L| |N|-|D|D|D|-|-|
CT_22 |N|N|-|-|-|-|-| |-|-|E|D|N|-|-| |-|-|-|E|-|-|-| |D|L|L|L|L|-|-|
CT_23 |-|E|E|L|L|-|-| |N|-|-|D|-|-|-| |L|-|-|-|E|-|-| |L|-|L|-|L|-|-|
CT_24 |N|-|E|N|N|-|-| |-|L|L|N|N|-|-| |-|L|L|L|N|-|-| |L|-|E|-|E|-|-|
CT_25 |D|D|D|L|N|-|-| |D|D|L|L|L|L|N| |N|-|E|E|-|-|-| |L|L|L|L|L|L|L|
CT_26 |-|-|D|-|-|-|-| |-|D|D|L|-|-|-| |L|-|N|N|-|L|N| |-|-|-|N|N|-|-|
CT_27 |D|-|E|E|L|-|-| |-|-|D|-|N|-|-| |-|-|L|L|L|-|-| |L|L|-|-|-|-|-|
CT_28 |-|L|L|-|L|-|-| |L|N|-|-|L|-|-| |D|D|E|-|E|-|-| |-|L|-|-|-|-|-|
TR_29 |-|E|N|N|-|-|-| |-|E|-|L|-|-|-| |D|-|-|-|L|-|-| |E|N|-|-|-|D|D|
TR_30 |D|L|-|D|E|D|L| |L|L|N|-|E|D|L| |L|N|N|N|N|-|-| |D|D|D|E|D|-|-|
TR_31 |-|-|D|L|-|E|D| |D|-|D|E|D|-|-| |-|E|-|-|-|E|E| |-|D|E|-|-|L|L|
TR_32 |E|D|L|L|N|-|-| |E|D|L|N|N|N|N| |N|-|D|D|D|-|-| |E|L|L|L|-|D|E|
TR_33 |L|-|E|E|D|-|-| |-|-|-|D|E|-|-| |L|-|E|-|L|N|N| |-|N|-|D|-|N|N|
TR_34 |D|-|-|-|E|N|N| |-|-|E|L|-|E|D| |E|D|L|-|-|-|-| |N|-|E|E|N|-|-|


Hard constraint violations
--------------------------

Minimal coverage constraints: 0
Required skill constraints: 0
Illegal shift type succession constraints: 0
Single assignment per day: 0


Cost per constraint type
------------------------

Total assignment constraints: 0
Consecutive constraints: 14220
Non working days constraints: 4200
Preferences: 10
Max working weekend: 30
Complete weekends: 0
Optimal coverage constraints: 30

------------------------

Total cost: 18490
